cell((0,0),0).
cell((0,1),16386).
cell((0,2),1025).
cell((0,3),4608).
cell((0,4),0).
cell((0,5),0).
cell((0,6),0).
cell((1,0),16386).
cell((1,1),2064).
cell((1,2),0).
cell((1,3),49186).
cell((1,4),1025).
cell((1,5),1025).
cell((1,6),4608).
cell((2,0),32800).
cell((2,1),0).
cell((2,2),0).
cell((2,3),32800).
cell((2,4),0).
cell((2,5),0).
cell((2,6),32800).
cell((3,0),32800).
cell((3,1),16386).
cell((3,2),1025).
cell((3,3),33825).
cell((3,4),1025).
cell((3,5),1025).
cell((3,6),2064).
cell((4,0),32800).
cell((4,1),32800).
cell((4,2),0).
cell((4,3),32800).
cell((4,4),0).
cell((4,5),0).
cell((4,6),0).
cell((5,0),32800).
cell((5,1),32800).
cell((5,2),0).
cell((5,3),32800).
cell((5,4),0).
cell((5,5),0).
cell((5,6),0).
cell((6,0),72).
cell((6,1),1097).
cell((6,2),1025).
cell((6,3),2064).
cell((6,4),0).
cell((6,5),0).
cell((6,6),0).
train(0).
start(0,(6,2),0,w).
end(0,(5,3),20).
global(120).
